p cnf 345 886
c uncontrollable inputs:
a 12 13 14 15 16 17 18 19 20 21 22 0
c state variables:
a 23 24 25 26 27 28 29 30 31 32 33 34 35 0
c next state variables:
a 36 37 38 39 40 41 42 43 44 45 46 47 48 0
c controllable inputs
d 1 12 13 14 15 16 17 18 19 20 21 22 23 24 25 26 27 28 29 30 31 32 33 34 35 0
d 2 12 13 14 15 16 17 18 19 20 21 22 23 24 25 26 27 28 29 30 31 32 33 34 35 0
d 3 12 13 14 15 16 17 18 19 20 21 22 23 24 25 26 27 28 29 30 31 32 33 34 35 0
d 4 12 13 14 15 16 17 18 19 20 21 22 23 24 25 26 27 28 29 30 31 32 33 34 35 0
d 5 12 13 14 15 16 17 18 19 20 21 22 23 24 25 26 27 28 29 30 31 32 33 34 35 0
d 6 12 13 14 15 16 17 18 19 20 21 22 23 24 25 26 27 28 29 30 31 32 33 34 35 0
d 7 12 13 14 15 16 17 18 19 20 21 22 23 24 25 26 27 28 29 30 31 32 33 34 35 0
d 8 12 13 14 15 16 17 18 19 20 21 22 23 24 25 26 27 28 29 30 31 32 33 34 35 0
d 9 12 13 14 15 16 17 18 19 20 21 22 23 24 25 26 27 28 29 30 31 32 33 34 35 0
d 10 12 13 14 15 16 17 18 19 20 21 22 23 24 25 26 27 28 29 30 31 32 33 34 35 0
d 11 12 13 14 15 16 17 18 19 20 21 22 23 24 25 26 27 28 29 30 31 32 33 34 35 0
c winning region (state)
d 49 23 24 25 26 27 28 29 30 31 32 33 34 35 0
c winning region (next state)
d 50 36 37 38 39 40 41 42 43 44 45 46 47 48 0
c tseitin variables
e 51 52 53 54 55 56 57 58 59 60 61 62 63 64 65 66 67 68 69 70 71 72 73 74 75 76 77 78 79 80 81 82 83 84 85 86 87 88 89 90 91 92 93 94 95 96 97 98 99 100 101 102 103 104 105 106 107 108 109 110 111 112 113 114 115 116 117 118 119 120 121 122 123 124 125 126 127 128 129 130 131 132 133 134 135 136 137 138 139 140 141 142 143 144 145 146 147 148 149 150 151 152 153 154 155 156 157 158 159 160 161 162 163 164 165 166 167 168 169 170 171 172 173 174 175 176 177 178 179 180 181 182 183 184 185 186 187 188 189 190 191 192 193 194 195 196 197 198 199 200 201 202 203 204 205 206 207 208 209 210 211 212 213 214 215 216 217 218 219 220 221 222 223 224 225 226 227 228 229 230 231 232 233 234 235 236 237 238 239 240 241 242 243 244 245 246 247 248 249 250 251 252 253 254 255 256 257 258 259 260 261 262 263 264 265 266 267 268 269 270 271 272 273 274 275 276 277 278 279 280 281 282 283 284 285 286 287 288 289 290 291 292 293 294 295 296 297 298 299 300 301 302 303 304 305 306 307 308 309 310 311 312 313 314 315 316 317 318 319 320 321 322 323 324 325 326 327 328 329 330 331 332 333 334 335 336 337 338 339 340 341 342 343 344 345 0
c clauses:
-51 -36 0
-51 23 0
51 36 -23 0
-52 36 0
-52 -23 0
52 -36 23 0
-53 -51 0
-53 -52 0
53 51 52 0
-54 -37 0
-54 24 0
54 37 -24 0
-55 37 0
-55 -24 0
55 -37 24 0
-56 -54 0
-56 -55 0
56 54 55 0
-57 53 0
-57 56 0
57 -53 -56 0
-58 -38 0
-58 25 0
58 38 -25 0
-59 38 0
-59 -25 0
59 -38 25 0
-60 -58 0
-60 -59 0
60 58 59 0
-61 -39 0
-61 26 0
61 39 -26 0
-62 39 0
-62 -26 0
62 -39 26 0
-63 -61 0
-63 -62 0
63 61 62 0
-64 60 0
-64 63 0
64 -60 -63 0
-65 57 0
-65 64 0
65 -57 -64 0
-66 -40 0
-66 27 0
66 40 -27 0
-67 40 0
-67 -27 0
67 -40 27 0
-68 -66 0
-68 -67 0
68 66 67 0
-69 -41 0
-69 28 0
69 41 -28 0
-70 41 0
-70 -28 0
70 -41 28 0
-71 -69 0
-71 -70 0
71 69 70 0
-72 68 0
-72 71 0
72 -68 -71 0
-73 -42 0
-73 29 0
73 42 -29 0
-74 42 0
-74 -29 0
74 -42 29 0
-75 -73 0
-75 -74 0
75 73 74 0
-76 -43 0
-76 30 0
76 43 -30 0
-77 43 0
-77 -30 0
77 -43 30 0
-78 -76 0
-78 -77 0
78 76 77 0
-79 75 0
-79 78 0
79 -75 -78 0
-80 72 0
-80 79 0
80 -72 -79 0
-81 65 0
-81 80 0
81 -65 -80 0
-82 -48 0
-82 35 0
82 48 -35 0
-83 48 0
-83 -35 0
83 -48 35 0
-84 -82 0
-84 -83 0
84 82 83 0
-85 -44 0
-85 31 0
85 44 -31 0
-86 44 0
-86 -31 0
86 -44 31 0
-87 -85 0
-87 -86 0
87 85 86 0
-88 -45 0
-88 32 0
88 45 -32 0
-89 45 0
-89 -32 0
89 -45 32 0
-90 -88 0
-90 -89 0
90 88 89 0
-91 87 0
-91 90 0
91 -87 -90 0
-92 -46 0
-92 33 0
92 46 -33 0
-93 46 0
-93 -33 0
93 -46 33 0
-94 -92 0
-94 -93 0
94 92 93 0
-95 -47 0
-95 34 0
95 47 -34 0
-96 47 0
-96 -34 0
96 -47 34 0
-97 -95 0
-97 -96 0
97 95 96 0
-98 94 0
-98 97 0
98 -94 -97 0
-99 91 0
-99 98 0
99 -91 -98 0
-100 84 0
-100 99 0
100 -84 -99 0
-101 81 0
-101 100 0
101 -81 -100 0
-102 50 0
-102 -49 0
102 -50 49 0
-103 -50 0
-103 49 0
103 50 -49 0
-104 -102 0
-104 -103 0
104 102 103 0
-105 101 0
-105 -104 0
105 -101 104 0
-106 35 0
-106 23 0
106 -35 -23 0
-107 -2 0
-107 1 0
107 2 -1 0
-108 2 0
-108 -1 0
108 -2 1 0
-109 -107 0
-109 -108 0
109 107 108 0
-110 -3 0
-110 -109 0
110 3 109 0
-111 3 0
-111 109 0
111 -3 -109 0
-112 -110 0
-112 -111 0
112 110 111 0
-113 -4 0
-113 -112 0
113 4 112 0
-114 4 0
-114 112 0
114 -4 -112 0
-115 -113 0
-115 -114 0
115 113 114 0
-116 -5 0
-116 -115 0
116 5 115 0
-117 5 0
-117 115 0
117 -5 -115 0
-118 -116 0
-118 -117 0
118 116 117 0
-119 -6 0
-119 -118 0
119 6 118 0
-120 6 0
-120 118 0
120 -6 -118 0
-121 -119 0
-121 -120 0
121 119 120 0
-122 -7 0
-122 -121 0
122 7 121 0
-123 7 0
-123 121 0
123 -7 -121 0
-124 -122 0
-124 -123 0
124 122 123 0
-125 -8 0
-125 -124 0
125 8 124 0
-126 8 0
-126 124 0
126 -8 -124 0
-127 -125 0
-127 -126 0
127 125 126 0
-128 -9 0
-128 -127 0
128 9 127 0
-129 9 0
-129 127 0
129 -9 -127 0
-130 -128 0
-130 -129 0
130 128 129 0
-131 -10 0
-131 -130 0
131 10 130 0
-132 10 0
-132 130 0
132 -10 -130 0
-133 -131 0
-133 -132 0
133 131 132 0
-134 -11 0
-134 -133 0
134 11 133 0
-135 11 0
-135 133 0
135 -11 -133 0
-136 -134 0
-136 -135 0
136 134 135 0
-137 106 0
-137 -136 0
137 -106 136 0
-138 24 0
-138 23 0
138 -24 -23 0
-139 12 0
-139 138 0
139 -12 -138 0
-140 -12 0
-140 -138 0
140 12 138 0
141 -139 0
141 -140 0
-141 139 140 0
-142 -137 0
-142 -141 0
142 137 141 0
-143 138 0
-143 137 0
143 -138 -137 0
-144 -142 0
-144 -143 0
144 142 143 0
-145 -37 0
-145 -144 0
145 37 144 0
-146 37 0
-146 144 0
146 -37 -144 0
-147 -145 0
-147 -146 0
147 145 146 0
-148 36 0
-148 147 0
148 -36 -147 0
-149 25 0
-149 23 0
149 -25 -23 0
-150 13 0
-150 149 0
150 -13 -149 0
-151 -13 0
-151 -149 0
151 13 149 0
-152 -150 0
-152 -151 0
152 150 151 0
-153 139 0
-153 -152 0
153 -139 152 0
-154 -139 0
-154 152 0
154 139 -152 0
-155 -153 0
-155 -154 0
155 153 154 0
-156 -137 0
-156 -155 0
156 137 155 0
-157 149 0
-157 137 0
157 -149 -137 0
-158 -156 0
-158 -157 0
158 156 157 0
-159 -38 0
-159 -158 0
159 38 158 0
-160 38 0
-160 158 0
160 -38 -158 0
-161 -159 0
-161 -160 0
161 159 160 0
162 139 0
162 -151 0
-162 -139 151 0
-163 162 0
-163 -150 0
163 -162 150 0
-164 26 0
-164 23 0
164 -26 -23 0
-165 14 0
-165 164 0
165 -14 -164 0
-166 -163 0
-166 165 0
166 163 -165 0
-167 -14 0
-167 -164 0
167 14 164 0
168 -163 0
168 -167 0
-168 163 167 0
-169 168 0
-169 -165 0
169 -168 165 0
-170 163 0
-170 167 0
170 -163 -167 0
-171 169 0
-171 -170 0
171 -169 170 0
-172 -166 0
-172 -171 0
172 166 171 0
-173 -137 0
-173 -172 0
173 137 172 0
-174 164 0
-174 137 0
174 -164 -137 0
-175 -173 0
-175 -174 0
175 173 174 0
-176 -39 0
-176 -175 0
176 39 175 0
-177 39 0
-177 175 0
177 -39 -175 0
-178 -176 0
-178 -177 0
178 176 177 0
-179 161 0
-179 178 0
179 -161 -178 0
-180 148 0
-180 179 0
180 -148 -179 0
-181 27 0
-181 23 0
181 -27 -23 0
-182 15 0
-182 181 0
182 -15 -181 0
-183 -169 0
-183 182 0
183 169 -182 0
-184 -15 0
-184 -181 0
184 15 181 0
185 -169 0
185 -184 0
-185 169 184 0
-186 185 0
-186 -182 0
186 -185 182 0
-187 169 0
-187 184 0
187 -169 -184 0
-188 186 0
-188 -187 0
188 -186 187 0
-189 -183 0
-189 -188 0
189 183 188 0
-190 -137 0
-190 -189 0
190 137 189 0
-191 181 0
-191 137 0
191 -181 -137 0
-192 -190 0
-192 -191 0
192 190 191 0
-193 -40 0
-193 -192 0
193 40 192 0
-194 40 0
-194 192 0
194 -40 -192 0
-195 -193 0
-195 -194 0
195 193 194 0
-196 28 0
-196 23 0
196 -28 -23 0
-197 16 0
-197 196 0
197 -16 -196 0
-198 -186 0
-198 197 0
198 186 -197 0
-199 -16 0
-199 -196 0
199 16 196 0
200 -186 0
200 -199 0
-200 186 199 0
-201 200 0
-201 -197 0
201 -200 197 0
-202 186 0
-202 199 0
202 -186 -199 0
-203 201 0
-203 -202 0
203 -201 202 0
-204 -198 0
-204 -203 0
204 198 203 0
-205 -137 0
-205 -204 0
205 137 204 0
-206 196 0
-206 137 0
206 -196 -137 0
-207 -205 0
-207 -206 0
207 205 206 0
-208 -41 0
-208 -207 0
208 41 207 0
-209 41 0
-209 207 0
209 -41 -207 0
-210 -208 0
-210 -209 0
210 208 209 0
-211 195 0
-211 210 0
211 -195 -210 0
-212 29 0
-212 23 0
212 -29 -23 0
-213 17 0
-213 212 0
213 -17 -212 0
-214 -201 0
-214 213 0
214 201 -213 0
-215 -17 0
-215 -212 0
215 17 212 0
216 -201 0
216 -215 0
-216 201 215 0
-217 216 0
-217 -213 0
217 -216 213 0
-218 201 0
-218 215 0
218 -201 -215 0
-219 217 0
-219 -218 0
219 -217 218 0
-220 -214 0
-220 -219 0
220 214 219 0
-221 -137 0
-221 -220 0
221 137 220 0
-222 212 0
-222 137 0
222 -212 -137 0
-223 -221 0
-223 -222 0
223 221 222 0
-224 -42 0
-224 -223 0
224 42 223 0
-225 42 0
-225 223 0
225 -42 -223 0
-226 -224 0
-226 -225 0
226 224 225 0
-227 30 0
-227 23 0
227 -30 -23 0
-228 18 0
-228 227 0
228 -18 -227 0
-229 -217 0
-229 228 0
229 217 -228 0
-230 -18 0
-230 -227 0
230 18 227 0
231 -217 0
231 -230 0
-231 217 230 0
-232 231 0
-232 -228 0
232 -231 228 0
-233 217 0
-233 230 0
233 -217 -230 0
-234 232 0
-234 -233 0
234 -232 233 0
-235 -229 0
-235 -234 0
235 229 234 0
-236 -137 0
-236 -235 0
236 137 235 0
-237 227 0
-237 137 0
237 -227 -137 0
-238 -236 0
-238 -237 0
238 236 237 0
-239 -43 0
-239 -238 0
239 43 238 0
-240 43 0
-240 238 0
240 -43 -238 0
-241 -239 0
-241 -240 0
241 239 240 0
-242 226 0
-242 241 0
242 -226 -241 0
-243 211 0
-243 242 0
243 -211 -242 0
-244 180 0
-244 243 0
244 -180 -243 0
-245 31 0
-245 23 0
245 -31 -23 0
-246 -19 0
-246 -245 0
246 19 245 0
247 -232 0
247 -246 0
-247 232 246 0
-248 19 0
-248 245 0
248 -19 -245 0
-249 247 0
-249 -248 0
249 -247 248 0
-250 32 0
-250 23 0
250 -32 -23 0
-251 -20 0
-251 -250 0
251 20 250 0
252 -249 0
252 -251 0
-252 249 251 0
-253 20 0
-253 250 0
253 -20 -250 0
-254 252 0
-254 -253 0
254 -252 253 0
-255 33 0
-255 23 0
255 -33 -23 0
-256 -21 0
-256 -255 0
256 21 255 0
257 -254 0
257 -256 0
-257 254 256 0
-258 21 0
-258 255 0
258 -21 -255 0
-259 257 0
-259 -258 0
259 -257 258 0
-260 34 0
-260 23 0
260 -34 -23 0
-261 -22 0
-261 -260 0
261 22 260 0
262 -259 0
262 -261 0
-262 259 261 0
-263 22 0
-263 260 0
263 -22 -260 0
-264 262 0
-264 -263 0
264 -262 263 0
-265 106 0
-265 264 0
265 -106 -264 0
-266 -106 0
-266 -264 0
266 106 264 0
-267 -265 0
-267 -266 0
267 265 266 0
-268 -267 0
-268 -137 0
268 267 137 0
-269 -48 0
-269 268 0
269 48 -268 0
-270 48 0
-270 -268 0
270 -48 268 0
-271 -269 0
-271 -270 0
271 269 270 0
-272 -232 0
-272 248 0
272 232 -248 0
-273 232 0
-273 246 0
273 -232 -246 0
-274 249 0
-274 -273 0
274 -249 273 0
-275 -272 0
-275 -274 0
275 272 274 0
-276 -137 0
-276 -275 0
276 137 275 0
-277 245 0
-277 137 0
277 -245 -137 0
-278 -276 0
-278 -277 0
278 276 277 0
-279 -44 0
-279 -278 0
279 44 278 0
-280 44 0
-280 278 0
280 -44 -278 0
-281 -279 0
-281 -280 0
281 279 280 0
-282 -249 0
-282 253 0
282 249 -253 0
-283 249 0
-283 251 0
283 -249 -251 0
-284 254 0
-284 -283 0
284 -254 283 0
-285 -282 0
-285 -284 0
285 282 284 0
-286 -137 0
-286 -285 0
286 137 285 0
-287 250 0
-287 137 0
287 -250 -137 0
-288 -286 0
-288 -287 0
288 286 287 0
-289 -45 0
-289 -288 0
289 45 288 0
-290 45 0
-290 288 0
290 -45 -288 0
-291 -289 0
-291 -290 0
291 289 290 0
-292 281 0
-292 291 0
292 -281 -291 0
-293 -254 0
-293 258 0
293 254 -258 0
-294 254 0
-294 256 0
294 -254 -256 0
-295 259 0
-295 -294 0
295 -259 294 0
-296 -293 0
-296 -295 0
296 293 295 0
-297 -137 0
-297 -296 0
297 137 296 0
-298 255 0
-298 137 0
298 -255 -137 0
-299 -297 0
-299 -298 0
299 297 298 0
-300 -46 0
-300 -299 0
300 46 299 0
-301 46 0
-301 299 0
301 -46 -299 0
-302 -300 0
-302 -301 0
302 300 301 0
-303 -259 0
-303 263 0
303 259 -263 0
-304 259 0
-304 261 0
304 -259 -261 0
-305 264 0
-305 -304 0
305 -264 304 0
-306 -303 0
-306 -305 0
306 303 305 0
-307 -137 0
-307 -306 0
307 137 306 0
-308 260 0
-308 137 0
308 -260 -137 0
-309 -307 0
-309 -308 0
309 307 308 0
-310 -47 0
-310 -309 0
310 47 309 0
-311 47 0
-311 309 0
311 -47 -309 0
-312 -310 0
-312 -311 0
312 310 311 0
-313 302 0
-313 312 0
313 -302 -312 0
-314 292 0
-314 313 0
314 -292 -313 0
-315 271 0
-315 314 0
315 -271 -314 0
-316 244 0
-316 315 0
316 -244 -315 0
-317 316 0
-317 103 0
317 -316 -103 0
-318 24 0
-318 149 0
318 -24 -149 0
-319 318 0
-319 164 0
319 -318 -164 0
-320 319 0
-320 181 0
320 -319 -181 0
-321 320 0
-321 196 0
321 -320 -196 0
-322 321 0
-322 212 0
322 -321 -212 0
-323 322 0
-323 227 0
323 -322 -227 0
-324 323 0
-324 245 0
324 -323 -245 0
-325 324 0
-325 250 0
325 -324 -250 0
-326 325 0
-326 255 0
326 -325 -255 0
-327 326 0
-327 260 0
327 -326 -260 0
-328 327 0
-328 106 0
328 -327 -106 0
-329 49 0
-329 328 0
329 -49 -328 0
-330 -24 0
-330 -23 0
330 24 23 0
-331 -26 0
-331 -25 0
331 26 25 0
-332 330 0
-332 331 0
332 -330 -331 0
-333 -28 0
-333 -27 0
333 28 27 0
-334 -30 0
-334 -29 0
334 30 29 0
-335 333 0
-335 334 0
335 -333 -334 0
-336 332 0
-336 335 0
336 -332 -335 0
-337 -32 0
-337 -31 0
337 32 31 0
-338 -34 0
-338 -33 0
338 34 33 0
-339 337 0
-339 338 0
339 -337 -338 0
-340 -35 0
-340 339 0
340 35 -339 0
-341 336 0
-341 340 0
341 -336 -340 0
-342 -49 0
-342 341 0
342 49 -341 0
-343 -329 0
-343 -342 0
343 329 342 0
-344 -317 0
-344 343 0
344 317 -343 0
-345 -105 0
-345 344 0
345 105 -344 0
345 0
